c 3 __LINUXTHREADS_OLD__
c 1 __UCLIBC_HAS_THREADS_NATIVE__
c 2 __UCLIBC_HAS_XLOCALE__
c 6 __UCLIBC_HAS_LOCALE__
c 5 __PTHREADS_DEBUG_SUPPORT__
c 4 __UCLIBC_HAS_THREADS__
p cnf 6 1
-6 -3 -5 -2 -4 -1 1
